(set-info :smt-lib-version 2.6)
(set-logic QF_S)
(set-info :source |
Generated by: Hung-En Wang, Tzung-Lin Tsai, Chun-Han Lin, Fang Yu, and Jie-Hong R. Jiang
Generated on: 2019-02-28
Generator: Stranger
Application: Security analysis of string manipulating web applications
Target solver: CVC4, Norn, Z3-str2
Publication:
Hung-En Wang, Tzung-Lin Tsai, Chun-Han Lin, Fang Yu, Jie-Hong R. Jiang:
String Analysis via Automata Manipulation with Logic Circuit Representation. CAV (1) 2016: 241-260.
|)
(set-info :license "https://creativecommons.org/licenses/by/4.0/")
(set-info :category "industrial")
(set-info :status unknown)

(declare-fun sigmaStar_0 () String)
(declare-fun sigmaStar_1 () String)
(declare-fun sigmaStar_2 () String)
(declare-fun sigmaStar_3 () String)
(declare-fun sigmaStar_4 () String)
(declare-fun sigmaStar_5 () String)
(declare-fun sigmaStar_6 () String)
(declare-fun sigmaStar_7 () String)
(declare-fun sigmaStar_8 () String)
(declare-fun sigmaStar_9 () String)
(declare-fun sigmaStar_10 () String)
(declare-fun sigmaStar_11 () String)
(declare-fun sigmaStar_12 () String)
(declare-fun sigmaStar_13 () String)
(declare-fun sigmaStar_14 () String)
(declare-fun sigmaStar_15 () String)
(declare-fun sigmaStar_16 () String)
(declare-fun sigmaStar_17 () String)
(declare-fun sigmaStar_18 () String)
(declare-fun sigmaStar_19 () String)
(declare-fun sigmaStar_20 () String)
(declare-fun sigmaStar_21 () String)
(declare-fun sigmaStar_22 () String)
(declare-fun sigmaStar_23 () String)
(declare-fun sigmaStar_24 () String)
(declare-fun sigmaStar_26 () String)
(declare-fun sigmaStar_28 () String)
(declare-fun sigmaStar_36 () String)
(declare-fun sigmaStar_39 () String)
(declare-fun literal_51 () String)
(declare-fun x_34 () String)
(declare-fun epsilon () String)
(declare-fun x_53 () String)
(declare-fun literal_56 () String)
(declare-fun x_59 () String)
(declare-fun literal_54 () String)
(declare-fun x_60 () String)
(declare-fun x_62 () String)
(declare-fun literal_55 () String)
(declare-fun literal_57 () String)
(declare-fun literal_58 () String)
(declare-fun x_64 () String)
(declare-fun literal_63 () String)
(declare-fun x_66 () String)
(declare-fun literal_67 () String)
(declare-fun x_69 () String)
(declare-fun literal_65 () String)
(declare-fun x_68 () String)
(declare-fun x_70 () String)
(declare-fun x_71 () String)
(declare-fun x_73 () String)
(declare-fun x_76 () String)
(declare-fun literal_74 () String)
(declare-fun x_77 () String)
(declare-fun literal_75 () String)
(declare-fun x_78 () String)
(declare-fun literal_81 () String)
(declare-fun x_83 () String)
(declare-fun x_82 () String)
(declare-fun x_84 () String)
(declare-fun x_85 () String)
(declare-fun x_86 () String)
(declare-fun x_89 () String)
(declare-fun literal_87 () String)
(declare-fun x_90 () String)
(declare-fun literal_88 () String)
(declare-fun x_91 () String)
(declare-fun literal_92 () String)
(declare-fun x_94 () String)
(declare-fun x_93 () String)
(declare-fun x_95 () String)
(declare-fun x_96 () String)
(declare-fun x_97 () String)
(declare-fun x_100 () String)
(declare-fun literal_98 () String)
(declare-fun x_101 () String)
(declare-fun literal_99 () String)
(declare-fun x_102 () String)
(declare-fun literal_103 () String)
(declare-fun x_105 () String)
(declare-fun x_107 () String)
(declare-fun literal_104 () String)
(declare-fun x_108 () String)
(declare-fun literal_109 () String)
(declare-fun x_110 () String)
(assert (= literal_51 "\u{0d}\u{0a}\u{0d}\u{0a}\u{3c}\u{68}\u{74}\u{6d}\u{6c}\u{3e}\u{3c}\u{68}\u{65}\u{61}\u{64}\u{3e}\u{3c}\u{74}\u{69}\u{74}\u{6c}\u{65}\u{3e}\u{50}\u{6c}\u{6f}\u{74}\u{74}\u{69}\u{6e}\u{67}\u{20}"))
(assert (= epsilon ""))
(assert (or (= x_34 epsilon) (= x_34 sigmaStar_19)))
(assert (= x_53 (str.++ literal_51 x_34)))
(assert (= literal_56 "\u{3c}\u{2f}\u{74}\u{69}\u{74}\u{6c}\u{65}\u{3e}\u{0d}\u{0a}"))
(assert (= x_59 (str.++ x_53 literal_56)))
(assert (= literal_54 "\u{3c}\u{69}\u{6d}\u{67}\u{20}\u{73}\u{72}\u{63}\u{3d}\u{5c}\u{22}\u{70}\u{6c}\u{6f}\u{74}\u{69}\u{6d}\u{61}\u{67}\u{65}\u{2e}\u{70}\u{68}\u{70}\u{3f}\u{6c}\u{61}\u{74}\u{3d}"))
(assert (= x_60 (str.++ literal_54 x_34)))
(assert (= literal_55 "\u{3c}\u{73}\u{74}\u{79}\u{6c}\u{65}\u{3e}\u{0d}\u{0a}\u{23}\u{64}\u{6f}\u{74}\u{44}\u{69}\u{76}\u{20}\u{7b}\u{20}\u{70}\u{61}\u{64}\u{64}\u{69}\u{6e}\u{67}\u{2d}\u{6c}\u{65}\u{66}\u{74}\u{3a}\u{3b}\u{20}\u{70}\u{61}\u{64}\u{64}\u{69}\u{6e}\u{67}\u{2d}\u{74}\u{6f}\u{70}\u{3a}\u{3b}\u{20}\u{7d}\u{0d}\u{0a}\u{3c}\u{2f}\u{73}\u{74}\u{79}\u{6c}\u{65}\u{3e}"))
(assert (= literal_57 ""))
(assert (= literal_58 ""))
(assert (or (= x_62 literal_55) (= x_62 literal_57) (= x_62 literal_58)))
(assert (= x_64 (str.++ x_59 x_62)))
(assert (= literal_63 "\u{26}\u{61}\u{6d}\u{70}\u{3b}\u{6c}\u{6f}\u{6e}\u{3d}"))
(assert (= x_66 (str.++ x_60 literal_63)))
(assert (= literal_67 "\u{0d}\u{0a}\u{0d}\u{0a}\u{3c}\u{21}\u{2d}\u{2d}\u{20}\u{79}\u{6f}\u{75}\u{72}\u{20}\u{68}\u{65}\u{61}\u{64}\u{20}\u{74}\u{61}\u{67}\u{73}\u{20}\u{68}\u{65}\u{72}\u{65}\u{20}\u{2d}\u{2d}\u{3e}\u{0d}\u{0a}\u{3c}\u{6c}\u{69}\u{6e}\u{6b}\u{20}\u{72}\u{65}\u{6c}\u{3d}\u{22}\u{53}\u{74}\u{79}\u{6c}\u{65}\u{73}\u{68}\u{65}\u{65}\u{74}\u{22}\u{20}\u{68}\u{72}\u{65}\u{66}\u{3d}\u{22}\u{69}\u{70}\u{2d}\u{61}\u{74}\u{6c}\u{61}\u{73}\u{2e}\u{63}\u{73}\u{73}\u{22}\u{3e}\u{0d}\u{0a}\u{3c}\u{2f}\u{68}\u{65}\u{61}\u{64}\u{3e}\u{3c}\u{62}\u{6f}\u{64}\u{79}\u{20}\u{62}\u{67}\u{63}\u{6f}\u{6c}\u{6f}\u{72}\u{3d}\u{22}\u{23}\u{46}\u{46}\u{46}\u{46}\u{46}\u{46}\u{22}\u{3e}\u{0d}\u{0a}\u{0d}\u{0a}\u{0d}\u{0a}\u{3c}\u{61}\u{20}\u{6e}\u{61}\u{6d}\u{65}\u{3d}\u{22}\u{6d}\u{61}\u{70}\u{22}\u{3e}\u{3c}\u{2f}\u{61}\u{3e}\u{0d}\u{0a}\u{0d}\u{0a}\u{3c}\u{74}\u{61}\u{62}\u{6c}\u{65}\u{20}\u{76}\u{61}\u{6c}\u{69}\u{67}\u{6e}\u{3d}\u{22}\u{74}\u{6f}\u{70}\u{22}\u{20}\u{63}\u{65}\u{6c}\u{6c}\u{70}\u{61}\u{64}\u{64}\u{69}\u{6e}\u{67}\u{3d}\u{30}\u{20}\u{63}\u{65}\u{6c}\u{6c}\u{73}\u{70}\u{61}\u{63}\u{69}\u{6e}\u{67}\u{3d}\u{30}\u{20}\u{62}\u{6f}\u{72}\u{64}\u{65}\u{72}\u{3d}\u{30}\u{20}\u{62}\u{61}\u{63}\u{6b}\u{67}\u{72}\u{6f}\u{75}\u{6e}\u{64}\u{3d}\u{22}"))
(assert (= x_69 (str.++ x_64 literal_67)))
(assert (= literal_65 "\u{3c}\u{64}\u{69}\u{76}\u{20}\u{69}\u{64}\u{3d}\u{5c}\u{22}\u{64}\u{6f}\u{74}\u{44}\u{69}\u{76}\u{5c}\u{22}\u{3e}\u{3c}\u{69}\u{6d}\u{67}\u{20}\u{77}\u{69}\u{64}\u{74}\u{68}\u{3d}\u{5c}\u{22}"))
(assert (or (= x_68 sigmaStar_28) (= x_68 sigmaStar_26)))
(assert (= x_70 (str.++ literal_65 x_68)))
(assert (= x_71 (str.++ x_66 x_34)))
(assert (or (= x_73 sigmaStar_39) (= x_73 sigmaStar_15) (= x_73 sigmaStar_36)))
(assert (= x_76 (str.++ x_69 x_73)))
(assert (= literal_74 "\u{5c}\u{22}\u{20}\u{68}\u{65}\u{69}\u{67}\u{68}\u{74}\u{3d}\u{5c}\u{22}"))
(assert (= x_77 (str.++ x_70 literal_74)))
(assert (= literal_75 "\u{5c}\u{22}\u{20}\u{77}\u{69}\u{64}\u{74}\u{68}\u{3d}\u{5c}\u{22}"))
(assert (= x_78 (str.++ x_71 literal_75)))
(assert (= literal_81 "\u{22}\u{20}\u{77}\u{69}\u{64}\u{74}\u{68}\u{3d}\u{22}"))
(assert (= x_83 (str.++ x_76 literal_81)))
(assert (or (= x_82 sigmaStar_28) (= x_82 sigmaStar_26)))
(assert (= x_84 (str.++ x_77 x_82)))
(assert (= x_85 (str.++ x_78 sigmaStar_23)))
(assert (or (= x_86 sigmaStar_24) (= x_86 sigmaStar_23)))
(assert (= x_89 (str.++ x_83 x_86)))
(assert (= literal_87 "\u{5c}\u{22}\u{20}\u{73}\u{72}\u{63}\u{3d}\u{5c}\u{22}"))
(assert (= x_90 (str.++ x_84 literal_87)))
(assert (= literal_88 "\u{5c}\u{22}\u{20}\u{68}\u{65}\u{69}\u{67}\u{68}\u{74}\u{3d}\u{5c}\u{22}"))
(assert (= x_91 (str.++ x_85 literal_88)))
(assert (= literal_92 "\u{22}\u{20}\u{68}\u{65}\u{69}\u{67}\u{68}\u{74}\u{3d}\u{22}"))
(assert (= x_94 (str.++ x_89 literal_92)))
(assert (or (= x_93 sigmaStar_28) (= x_93 sigmaStar_26)))
(assert (= x_95 (str.++ x_90 x_93)))
(assert (= x_96 (str.++ x_91 sigmaStar_23)))
(assert (or (= x_97 sigmaStar_24) (= x_97 sigmaStar_23)))
(assert (= x_100 (str.++ x_94 x_97)))
(assert (= literal_98 "\u{5c}\u{22}\u{3e}"))
(assert (= x_101 (str.++ x_95 literal_98)))
(assert (= literal_99 "\u{5c}\u{22}\u{20}\u{61}\u{6c}\u{74}\u{3d}\u{5c}\u{22}\u{5c}\u{22}\u{20}\u{2f}\u{3e}"))
(assert (= x_102 (str.++ x_96 literal_99)))
(assert (= literal_103 "\u{22}\u{3e}\u{3c}\u{74}\u{72}\u{3e}\u{3c}\u{74}\u{64}\u{20}\u{76}\u{61}\u{6c}\u{69}\u{67}\u{6e}\u{3d}\u{22}\u{74}\u{6f}\u{70}\u{22}\u{3e}"))
(assert (= x_105 (str.++ x_100 literal_103)))
(assert (= literal_104 "\u{26}\u{6e}\u{62}\u{73}\u{70}\u{3b}"))
(assert (or (= x_107 x_102) (= x_107 literal_104) (= x_107 x_101)))
(assert (= x_108 (str.++ x_105 x_107)))
(assert (= literal_109 "\u{3c}\u{2f}\u{74}\u{64}\u{3e}\u{3c}\u{2f}\u{74}\u{72}\u{3e}\u{3c}\u{2f}\u{74}\u{61}\u{62}\u{6c}\u{65}\u{3e}\u{0d}\u{0a}\u{0d}\u{0a}\u{0d}\u{0a}\u{3c}\u{62}\u{72}\u{20}\u{2f}\u{3e}\u{0d}\u{0a}"))
(assert (= x_110 (str.++ x_108 literal_109)))
(assert (str.in_re x_110 (re.++ (re.* re.allchar) (re.++ (str.to_re "\u{5c}\u{3c}\u{53}\u{43}\u{52}\u{49}\u{50}\u{54}") (re.* re.allchar)))))
(check-sat)
(exit)
